# 4345
param k := 6;
param n := 60;
param s := 1;
set E :=  (0,15) (1,3) (1,44) (1,52) (2,18) (2,40) (3,8) (4,23) (4,30) (5,6) (6,30) (7,12) (7,21) (8,13) (8,33) (9,27) (9,59) (10,26) (11,35) (11,36) (12,30) (13,19) (13,24) (14,40) (14,59) (15,41) (15,48) (16,23) (16,56) (17,24) (17,59) (18,24) (18,34) (20,25) (21,24) (21,39) (21,49) (22,51) (23,29) (25,35) (26,39) (26,51) (27,45) (28,47) (28,53) (29,42) (29,58) (30,48) (31,45) (32,39) (35,56) (37,43) (38,42) (39,50) (39,57) (43,46) (43,55) (43,56) (45,57) (50,56) (53,59) (54,56);